************************************************************************
file with basedata            : mm62_.bas
initial value random generator: 2092079395
************************************************************************
projects                      :  1
jobs (incl. supersource/sink ):  12
horizon                       :  79
RESOURCES
  - renewable                 :  2   R
  - nonrenewable              :  2   N
  - doubly constrained        :  0   D
************************************************************************
PROJECT INFORMATION:
pronr.  #jobs rel.date duedate tardcost  MPM-Time
    1     10      0       11        3       11
************************************************************************
PRECEDENCE RELATIONS:
jobnr.    #modes  #successors   successors
   1        1          3           2   3   4
   2        3          3           5   7   9
   3        3          1          10
   4        3          2           6   9
   5        3          2          10  11
   6        3          1           7
   7        3          1           8
   8        3          2          10  11
   9        3          1          12
  10        3          1          12
  11        3          1          12
  12        1          0        
************************************************************************
REQUESTS/DURATIONS:
jobnr. mode duration  R 1  R 2  N 1  N 2
------------------------------------------------------------------------
  1      1     0       0    0    0    0
  2      1     2       5    7    6    4
         2     3       5    6    5    3
         3     8       4    6    5    3
  3      1     1       4    6    7    8
         2     5       4    3    5    7
         3     6       4    3    3    4
  4      1     1       2    8    6    5
         2     4       2    6    5    4
         3     8       1    6    5    4
  5      1     6       7    5    8    9
         2     9       7    3    7    8
         3     9       6    5    7    7
  6      1     3       9    9    6    7
         2     4       9    8    6    6
         3    10       7    6    5    6
  7      1     1       6    8    9    5
         2     7       5    5    9    4
         3     9       5    3    7    3
  8      1     2       9    5    4    4
         2     3       7    4    3    2
         3     8       6    1    1    1
  9      1     3       6   10    8    6
         2     4       6    5    8    4
         3     9       4    5    8    3
 10      1     3       5    7   10    9
         2     4       4    5   10    8
         3     4       2    3   10    9
 11      1     1       6    5   10    6
         2     5       6    4    9    6
         3     8       5    4    6    5
 12      1     0       0    0    0    0
************************************************************************
RESOURCEAVAILABILITIES:
  R 1  R 2  N 1  N 2
   22   24   66   54
************************************************************************
MAXIMAL LAGS:
from  to  type  delay
    1   12   ES      0
    1    2   ES      0
    2   12   ES      0
    1    3   ES      0
    3   12   ES      0
    1    4   ES      0
    4   12   ES      0
    1    5   ES      0
    5   12   ES      0
    1    6   ES      0
    6   12   ES      0
    1    7   ES      0
    7   12   ES      0
    1    8   ES      0
    8   12   ES      0
    1    9   ES      0
    9   12   ES      0
    1   10   ES      0
   10   12   ES      0
    1   11   ES      0
   11   12   ES      0
    1   12   ES      0
    2    5   SS      6
    2    5   SE     -5
    2    5   ES     -8
    2    5   EE     -2
    2    7   SS      6
    2    7   SE     -9
    2    7   ES     -3
    2    7   EE    -12
    2    9   SS     12
    2    9   SE      4
    2    9   ES     -3
    2    9   EE      6
    3   10   SS      7
    3   10   SE     -6
    3   10   ES     -7
    3   10   EE     -6
    4    6   SS     -9
    4    6   SE     -7
    4    6   ES     12
    4    6   EE     -5
    4    9   SS     -3
    4    9   SE     12
    4    9   ES     -8
    4    9   EE     12
    5   10   SS      1
    5   10   SE      0
    5   10   ES      6
    5   10   EE      5
    5   11   SS    -11
    5   11   SE      1
    5   11   ES      7
    5   11   EE     10
    6    7   SS    -12
    6    7   SE      5
    6    7   ES      3
    6    7   EE     -8
    7    8   SS      0
    7    8   SE      8
    7    8   ES     -9
    7    8   EE      2
    8   10   SS     12
    8   10   SE      1
    8   10   ES    -12
    8   10   EE      8
    8   11   SS      2
    8   11   SE     -7
    8   11   ES     11
    8   11   EE     -6
************************************************************************
